(declare-fun temp102815_1 () (_ BitVec 64))
(declare-fun temp102815_2 () (_ BitVec 64))
(declare-fun var77740 () (_ BitVec 64))
(declare-fun k!0 () Bool)
(declare-fun ARGNAME_filter_NAMEEND_DIM () (_ BitVec 64))
(declare-fun ARGNAME_data_format_NAMEEND_STRFMT () (_ BitVec 64))
(declare-fun temp102815_3 () (_ BitVec 64))
(declare-fun ARGNAME_out_backprop_NAMEEND_DIM () (_ BitVec 64))
(declare-fun var77770 () (_ BitVec 64))
(declare-fun temp102815_4 () (_ BitVec 64))
(declare-fun temp102815_5 () (_ BitVec 64))
(declare-fun ARGNAME_filter_NAMEEND_DIMSIZE
             ()
             (Array (_ BitVec 64) (_ BitVec 64)))
(declare-fun temp102815_6 () (_ BitVec 64))
(declare-fun temp102815_7 () (_ BitVec 64))
(declare-fun temp102815_8 () (_ BitVec 64))
(declare-fun temp102815_9 () (_ BitVec 64))
(declare-fun temp102815_10 () (_ BitVec 64))
(declare-fun temp102815_11 () (_ BitVec 64))
(declare-fun temp102815_12 () (_ BitVec 64))
(declare-fun temp102815_13 () (_ BitVec 64))
(declare-fun temp102815_14 () (_ BitVec 64))
(declare-fun temp102815_15 () (_ BitVec 64))
(declare-fun temp102815_16 () (_ BitVec 64))
(declare-fun temp102815_17 () (_ BitVec 64))
(declare-fun temp102815_18 () (_ BitVec 64))
(declare-fun var77799 () (_ BitVec 64))
(declare-fun temp102815_19 () (_ BitVec 64))
(declare-fun ARGNAME_out_backprop_NAMEEND_DIMSIZE
             ()
             (Array (_ BitVec 64) (_ BitVec 64)))
(declare-fun temp102815_20 () (_ BitVec 64))
(declare-fun temp102815_21 () (_ BitVec 64))
(declare-fun temp102815_22 () (_ BitVec 64))
(declare-fun temp102815_23 () (_ BitVec 64))
(declare-fun temp102815_24 () (_ BitVec 64))
(declare-fun temp102815_25 () (_ BitVec 64))
(declare-fun temp102815_26 () (_ BitVec 64))
(declare-fun temp102815_27 () (_ BitVec 64))
(declare-fun temp102815_28 () (_ BitVec 64))
(declare-fun temp102815_29 () (_ BitVec 64))
(declare-fun temp102815_30 () (_ BitVec 64))
(declare-fun temp102815_31 () (_ BitVec 64))
(declare-fun temp102815_32 () (_ BitVec 64))
(declare-fun var77832 () (_ BitVec 64))
(declare-fun temp102815_33 () (_ BitVec 64))
(declare-fun temp102815_34 () (_ BitVec 64))
(declare-fun var77833 () (_ BitVec 64))
(declare-fun var77834 () (_ BitVec 64))
(declare-fun temp102815_35 () (_ BitVec 64))
(declare-fun temp102815_36 () (_ BitVec 64))
(declare-fun var275510 () (_ BitVec 64))
(declare-fun temp102815_37 () (_ BitVec 64))
(declare-fun var275528 () (_ BitVec 64))
(declare-fun temp102815_38 () (_ BitVec 64))
(declare-fun temp102815_40 () (_ BitVec 64))
(declare-fun temp102815_39 () (_ BitVec 64))
(declare-fun temp102815_41 () (_ BitVec 64))
(declare-fun var472118 () (_ BitVec 64))
(declare-fun temp102815_42 () (_ BitVec 64))
(declare-fun var472136 () (_ BitVec 64))
(declare-fun temp102815_43 () (_ BitVec 64))
(declare-fun temp102815_45 () (_ BitVec 64))
(declare-fun temp102815_44 () (_ BitVec 64))
(declare-fun temp102815_46 () (_ BitVec 64))
(declare-fun var668726 () (_ BitVec 64))
(declare-fun temp102815_47 () (_ BitVec 64))
(declare-fun var668744 () (_ BitVec 64))
(declare-fun temp102815_48 () (_ BitVec 64))
(declare-fun temp102815_50 () (_ BitVec 64))
(declare-fun temp102815_49 () (_ BitVec 64))
(declare-fun temp102815_52 () (_ BitVec 64))
(declare-fun temp102815_51 () (_ BitVec 64))
(declare-fun temp102815_54 () (_ BitVec 64))
(declare-fun temp102815_53 () (_ BitVec 64))
(declare-fun temp102815_56 () (_ BitVec 64))
(declare-fun temp102815_55 () (_ BitVec 64))
(declare-fun temp102815_58 () (_ BitVec 64))
(declare-fun temp102815_57 () (_ BitVec 64))
(declare-fun temp102815_60 () (_ BitVec 64))
(declare-fun temp102815_59 () (_ BitVec 64))
(declare-fun temp102815_62 () (_ BitVec 64))
(declare-fun temp102815_61 () (_ BitVec 64))
(declare-fun temp102815_63 () (_ BitVec 64))
(declare-fun var1123378 () (_ BitVec 64))
(declare-fun temp102815_64 () (_ BitVec 64))
(declare-fun var1123379 () (_ BitVec 64))
(declare-fun var1123380 () (_ BitVec 64))
(declare-fun var1123376 () (_ BitVec 64))
(declare-fun var795612 () (_ BitVec 64))
(declare-fun temp102815_65 () (_ BitVec 64))
(declare-fun var1188914 () (_ BitVec 64))
(declare-fun temp102815_66 () (_ BitVec 64))
(declare-fun var1188915 () (_ BitVec 64))
(declare-fun var1188916 () (_ BitVec 64))
(declare-fun var1188912 () (_ BitVec 64))
(declare-fun var795619 () (_ BitVec 64))
(declare-fun temp102815_67 () (_ BitVec 64))
(declare-fun var1254450 () (_ BitVec 64))
(declare-fun temp102815_68 () (_ BitVec 64))
(declare-fun var1254451 () (_ BitVec 64))
(declare-fun var1254452 () (_ BitVec 64))
(declare-fun var1254448 () (_ BitVec 64))
(declare-fun var795624 () (_ BitVec 64))
(declare-fun var78095 () (_ BitVec 64))
(declare-fun temp102815_69 () (_ BitVec 64))
(declare-fun temp102815_70 () (_ BitVec 64))
(declare-fun var78096 () (_ BitVec 64))
(declare-fun var78179 () (_ BitVec 64))
(assert (or (= ARGNAME_data_format_NAMEEND_STRFMT #x0000000000000000)
    (= ARGNAME_data_format_NAMEEND_STRFMT #x0000000000000001)
    (= ARGNAME_data_format_NAMEEND_STRFMT #x0000000000000002)
    (= ARGNAME_data_format_NAMEEND_STRFMT #x0000000000000003)
    (= ARGNAME_data_format_NAMEEND_STRFMT #x0000000000000004)
    (= ARGNAME_data_format_NAMEEND_STRFMT #x0000000000000005)))
(assert (= temp102815_1 #x0000000000000005))
(assert (= var77740
   (ite (= ARGNAME_filter_NAMEEND_DIM temp102815_1)
        #x0000000000000001
        #x0000000000000000)))
(assert (= temp102815_2 #x0000000000000001))
(assert (= var77740 temp102815_2))
(assert (= temp102815_3 #x0000000000000005))
(assert (= var77770
   (ite (= ARGNAME_out_backprop_NAMEEND_DIM temp102815_3)
        #x0000000000000001
        #x0000000000000000)))
(assert (= temp102815_4 #x0000000000000001))
(assert (= var77770 temp102815_4))
(assert (= temp102815_5 #x0000000000000000))
(assert (= temp102815_6 (select ARGNAME_filter_NAMEEND_DIMSIZE temp102815_5)))
(assert (= temp102815_7 #x0000000000000001))
(assert (= temp102815_8 (select ARGNAME_filter_NAMEEND_DIMSIZE temp102815_7)))
(assert (= temp102815_9 #x0000000000000002))
(assert (= temp102815_10 (select ARGNAME_filter_NAMEEND_DIMSIZE temp102815_9)))
(assert (= temp102815_11 #x0000000000000003))
(assert (= temp102815_12 (select ARGNAME_filter_NAMEEND_DIMSIZE temp102815_11)))
(assert (= temp102815_13 #x0000000000000004))
(assert (= temp102815_14 (select ARGNAME_filter_NAMEEND_DIMSIZE temp102815_13)))
(assert (= temp102815_15 #x0000000000000005))
(assert (= temp102815_16 (select ARGNAME_filter_NAMEEND_DIMSIZE temp102815_15)))
(assert (= temp102815_17 #x0000000000000003))
(assert (= temp102815_18 (select ARGNAME_filter_NAMEEND_DIMSIZE temp102815_17)))
(assert (= var77799 temp102815_18))
(assert (= temp102815_19 #x0000000000000000))
(assert (= temp102815_20 (select ARGNAME_out_backprop_NAMEEND_DIMSIZE temp102815_19)))
(assert (= temp102815_21 #x0000000000000001))
(assert (= temp102815_22 (select ARGNAME_out_backprop_NAMEEND_DIMSIZE temp102815_21)))
(assert (= temp102815_23 #x0000000000000002))
(assert (= temp102815_24 (select ARGNAME_out_backprop_NAMEEND_DIMSIZE temp102815_23)))
(assert (= temp102815_25 #x0000000000000003))
(assert (= temp102815_26 (select ARGNAME_out_backprop_NAMEEND_DIMSIZE temp102815_25)))
(assert (= temp102815_27 #x0000000000000004))
(assert (= temp102815_28 (select ARGNAME_out_backprop_NAMEEND_DIMSIZE temp102815_27)))
(assert (= temp102815_29 #x0000000000000005))
(assert (= temp102815_30 (select ARGNAME_out_backprop_NAMEEND_DIMSIZE temp102815_29)))
(assert (= temp102815_31 #x0000000000000004))
(assert (= temp102815_32 (select ARGNAME_out_backprop_NAMEEND_DIMSIZE temp102815_31)))
(assert (= var77832 temp102815_32))
(assert (= temp102815_33 #x0000000000000004))
(assert (= temp102815_34 (select ARGNAME_filter_NAMEEND_DIMSIZE temp102815_33)))
(assert (= var77833 temp102815_34))
(assert (= var77834 (ite (= var77832 var77833) #x0000000000000001 #x0000000000000000)))
(assert (= temp102815_35 #x0000000000000001))
(assert (= var77834 temp102815_35))
(assert (= temp102815_36 #x0000000000000001))
(assert (= var275510 temp102815_36))
(assert (= temp102815_37 #x0000000000000001))
(assert (= var275528
   (ite (bvslt var275510 temp102815_37) #x0000000000000001 #x0000000000000000)))
(assert (= temp102815_38 #x0000000000000000))
(assert (= var275528 temp102815_38))
(assert (= temp102815_40 #x0000000000000000))
(assert (= temp102815_39 temp102815_40))
(assert (= temp102815_41 #x0000000000000001))
(assert (= var472118 temp102815_41))
(assert (= temp102815_42 #x0000000000000001))
(assert (= var472136
   (ite (bvslt var472118 temp102815_42) #x0000000000000001 #x0000000000000000)))
(assert (= temp102815_43 #x0000000000000000))
(assert (= var472136 temp102815_43))
(assert (= temp102815_45 #x0000000000000000))
(assert (= temp102815_44 temp102815_45))
(assert (= temp102815_46 #x0000000000000001))
(assert (= var668726 temp102815_46))
(assert (= temp102815_47 #x0000000000000001))
(assert (= var668744
   (ite (bvslt var668726 temp102815_47) #x0000000000000001 #x0000000000000000)))
(assert (= temp102815_48 #x0000000000000000))
(assert (= var668744 temp102815_48))
(assert (= temp102815_50 #x0000000000000000))
(assert (= temp102815_49 temp102815_50))
(assert (= temp102815_52 #x00000000000000ff))
(assert (= temp102815_51 temp102815_52))
(assert (= temp102815_54 #x00000000000000ff))
(assert (= temp102815_53 temp102815_54))
(assert (= temp102815_56 #x00000000000000ff))
(assert (= temp102815_55 temp102815_56))
(assert (= temp102815_58 #x0000000000000000))
(assert (= temp102815_57 temp102815_58))
(assert (= temp102815_60 #x0000000000000000))
(assert (= temp102815_59 temp102815_60))
(assert (= temp102815_62 #x0000000000000000))
(assert (= temp102815_61 temp102815_62))
(assert (= temp102815_63 #x0000000000008000))
(assert (= var1123378 temp102815_63))
(assert (= temp102815_64 #x0000000000000001))
(assert (= var1123379
   (ite (bvslt temp102815_61 temp102815_64)
        #x0000000000000001
        #x0000000000000000)))
(assert (= var1123380 (ite (= var1123379 #x0000000000000001) var1123378 temp102815_61)))
(assert (= var1123376 var1123380))
(assert (= var795612 var1123376))
(assert (= temp102815_65 #x0000000000040000))
(assert (= var1188914 temp102815_65))
(assert (= temp102815_66 #x0000000000000001))
(assert (= var1188915
   (ite (bvslt temp102815_59 temp102815_66)
        #x0000000000000001
        #x0000000000000000)))
(assert (= var1188916 (ite (= var1188915 #x0000000000000001) var1188914 temp102815_59)))
(assert (= var1188912 var1188916))
(assert (= var795619 var1188912))
(assert (= temp102815_67 #x0000000000200000))
(assert (= var1254450 temp102815_67))
(assert (= temp102815_68 #x0000000000000001))
(assert (= var1254451
   (ite (bvslt temp102815_57 temp102815_68)
        #x0000000000000001
        #x0000000000000000)))
(assert (= var1254452 (ite (= var1254451 #x0000000000000001) var1254450 temp102815_57)))
(assert (= var1254448 var1254452))
(assert (= var795624 var1254448))
(assert (= var78095 var795624))
(assert (= temp102815_69 #x0000000000000003))
(assert (= temp102815_70 #xffffffffffffffff))
(assert (= var78179 (bvadd var78096 temp102815_70)))
(model-add temp102815_1 () (_ BitVec 64) #x0000000000000005)
(model-add temp102815_2 () (_ BitVec 64) #x0000000000000001)
(model-add var77740 () (_ BitVec 64) #x0000000000000001)
(model-del k!0)
(model-add ARGNAME_filter_NAMEEND_DIM
           ()
           (_ BitVec 64)
           (ite k!0 #x0000000000000005 (bvnot #x0000000000000005)))


